instances/knapsack/discrete_knapsack_uncertainty/knapsack_100_15.lp
\ Model knapsack_100_15
\ LP format - for model browsing. Use MPS format to capture full model detail.
\ Signature: 0x98b4e0718ea0846a
Minimize
  - 22 x[0] - 70 x[1] - 52 x[2] - 12 x[3] - 93 x[4] - 33 x[5] - 57 x[6]
   - 35 x[7] - 98 x[8] - 66 x[9] - 83 x[10] - 75 x[11] - 47 x[12]
   - 30 x[13] - 7 x[14] - 100 x[15] - 98 x[16] - 50 x[17] - 50 x[18]
   - 49 x[19] - 85 x[20] - 83 x[21] - 76 x[22] - 40 x[23] - 85 x[24]
   - 34 x[25] - 4 x[26] - 31 x[27] - 74 x[28] - 100 x[29] - 69 x[30]
   - 52 x[31] - 92 x[32] - 31 x[33] - 91 x[34] - 89 x[35] - 53 x[36]
   - 23 x[37] - 54 x[38] - 51 x[39] - 24 x[40] - 97 x[41] - 61 x[42]
   - 71 x[43] - 98 x[44] - 39 x[45] - 80 x[46] - 28 x[47] - 56 x[48]
   - 81 x[49] - 39 x[50] - 30 x[51] - 47 x[52] - 49 x[53] - 40 x[54]
   - 46 x[55] - 94 x[56] - 52 x[57] - 72 x[58] - 19 x[59] - 28 x[60]
   - 38 x[61] - 9 x[62] - 41 x[63] - 78 x[64] - 21 x[65] - 53 x[66]
   - 93 x[67] - 44 x[68] - 93 x[69] - 77 x[70] - 23 x[71] - 85 x[72]
   - 97 x[73] - 14 x[74] - 66 x[75] - 18 x[76] - 49 x[77] - 40 x[78]
   - 19 x[79] - 95 x[80] - 6 x[81] - 73 x[82] - 34 x[83] - 53 x[84]
   - 12 x[85] - 90 x[86] - 87 x[87] - 32 x[88] - 42 x[89] - 46 x[90]
   - 13 x[91] - 69 x[92] - 40 x[93] - 4 x[94] - 82 x[95] - 17 x[96]
   - 24 x[97] - 100 x[98] - 60 x[99]
Subject To
 primal_upper: 73 x[0] + 50 x[1] + 20 x[2] + 97 x[3] + 78 x[4] + 75 x[5]
   + 19 x[6] + 45 x[7] + 19 x[8] + 24 x[9] + 61 x[10] + 33 x[11] + 34 x[12]
   + 62 x[13] + 18 x[14] + 82 x[15] + 19 x[16] + 46 x[17] + 47 x[18]
   + 64 x[19] + 43 x[20] + 45 x[21] + 30 x[22] + 56 x[23] + 86 x[24]
   + 42 x[25] + 36 x[26] + 29 x[27] + 15 x[28] + 25 x[29] + 3 x[30]
   + 65 x[31] + 9 x[32] + 95 x[33] + 54 x[34] + 83 x[35] + 14 x[36]
   + 98 x[37] + 78 x[38] + 20 x[39] + 49 x[40] + 79 x[41] + 64 x[42]
   + 31 x[43] + 69 x[44] + 20 x[45] + 19 x[46] + 27 x[47] + x[48]
   + 58 x[49] + 56 x[50] + 66 x[51] + 67 x[52] + 98 x[53] + 26 x[54]
   + 17 x[55] + 31 x[56] + 4 x[57] + 54 x[58] + 40 x[59] + 86 x[60]
   + 40 x[61] + 69 x[62] + 56 x[63] + 37 x[64] + 58 x[65] + 18 x[66]
   + 16 x[67] + 90 x[68] + 11 x[69] + 51 x[70] + 43 x[71] + 92 x[72]
   + 81 x[73] + 85 x[74] + 74 x[75] + 16 x[76] + 37 x[77] + 90 x[78]
   + 88 x[79] + 87 x[80] + 31 x[81] + 92 x[82] + 27 x[83] + 11 x[84]
   + 71 x[85] + 65 x[86] + 22 x[87] + 4 x[88] + 73 x[89] + 70 x[90]
   + 98 x[91] + 2 x[92] + 93 x[93] + 34 x[94] + 91 x[95] + 51 x[96]
   + 70 x[97] + 18 x[98] + 30 x[99] + 7.3 r[0] + 5 r[1] + 2 r[2] + 9.7 r[3]
   + 7.8 r[4] + 7.5 r[5] + 1.9 r[6] + 4.5 r[7] + 1.9 r[8] + 2.4 r[9]
   + 6.1 r[10] + 3.3 r[11] + 3.4 r[12] + 6.2 r[13] + 1.8 r[14] + 8.2 r[15]
   + 1.9 r[16] + 4.6 r[17] + 4.7 r[18] + 6.4 r[19] + 4.3 r[20] + 4.5 r[21]
   + 3 r[22] + 5.6 r[23] + 8.6 r[24] + 4.2 r[25] + 3.6 r[26] + 2.9 r[27]
   + 1.5 r[28] + 2.5 r[29] + 0.3 r[30] + 6.5 r[31] + 0.9 r[32] + 9.5 r[33]
   + 5.4 r[34] + 8.3 r[35] + 1.4 r[36] + 9.8 r[37] + 7.8 r[38] + 2 r[39]
   + 4.9 r[40] + 7.9 r[41] + 6.4 r[42] + 3.1 r[43] + 6.9 r[44] + 2 r[45]
   + 1.9 r[46] + 2.7 r[47] + 0.1 r[48] + 5.8 r[49] + 5.6 r[50] + 6.6 r[51]
   + 6.7 r[52] + 9.8 r[53] + 2.6 r[54] + 1.7 r[55] + 3.1 r[56] + 0.4 r[57]
   + 5.4 r[58] + 4 r[59] + 8.6 r[60] + 4 r[61] + 6.9 r[62] + 5.6 r[63]
   + 3.7 r[64] + 5.8 r[65] + 1.8 r[66] + 1.6 r[67] + 9 r[68] + 1.1 r[69]
   + 5.1 r[70] + 4.3 r[71] + 9.2 r[72] + 8.1 r[73] + 8.5 r[74] + 7.4 r[75]
   + 1.6 r[76] + 3.7 r[77] + 9 r[78] + 8.8 r[79] + 8.7 r[80] + 3.1 r[81]
   + 9.2 r[82] + 2.7 r[83] + 1.1 r[84] + 7.1 r[85] + 6.5 r[86] + 2.2 r[87]
   + 0.4 r[88] + 7.3 r[89] + 7 r[90] + 9.8 r[91] + 0.2 r[92] + 9.3 r[93]
   + 3.4 r[94] + 9.1 r[95] + 5.1 r[96] + 7 r[97] + 1.8 r[98] + 3 r[99]
   <= 471
 primal_lower: 3.840292290875803 x[0] + 1.71781559303866 x[1]
   + 0.8195124575827024 x[2] + 2.321990662634213 x[3]
   + 1.339467168088491 x[4] + 3.188585183698355 x[5]
   + 1.190347483415798 x[6] + 0.3350057729248648 x[7]
   + 0.9842371173210889 x[8] + 3.058759836323558 x[9]
   + 3.246724143079068 x[10] + 4.656030967206104 x[11]
   + 2.470211154467956 x[12] + 1.32253596716743 x[13]
   + 1.893801719934735 x[14] + 3.74947880333324 x[15]
   + 0.8216952225736943 x[16] + 3.152362618343117 x[17]
   + 2.201710278753745 x[18] + 0.8664083649105254 x[19]
   + 1.404097698126335 x[20] + 1.280650427449013 x[21]
   + 0.7247745661870667 x[22] + 3.80043182548014 x[23]
   + 0.5444451765217032 x[24] + 0.8157721263033166 x[25]
   + 2.25210048281448 x[26] + 3.09443310076801 x[27]
   + 1.235663217896795 x[28] + 1.742962035444866 x[29]
   + 1.42182500320911 x[30] + 2.108869888576896 x[31]
   + 0.523911740410418 x[32] + 0.1996238486841356 x[33]
   + 3.390531806952766 x[34] + 4.608001618802025 x[35]
   + 3.235721614485866 x[36] + 2.192007718211463 x[37]
   + 0.6140382555938814 x[38] + 1.517600590485815 x[39]
   + 3.132050119973144 x[40] + 1.058342076832948 x[41]
   + 2.606817302234091 x[42] + 3.475807893172949 x[43]
   + 0.1421762716923256 x[44] + 0.9339861346518261 x[45]
   + 1.18401538235457 x[46] + 1.026282761869018 x[47]
   + 1.562344854748378 x[48] + 3.414500578066129 x[49]
   + 0.4566939953822581 x[50] + 3.070948189109555 x[51]
   + 0.6863472172032999 x[52] + 0.4957803526932726 x[53]
   + 2.348908530650521 x[54] + 0.3181835818128169 x[55]
   + 0.8333194966253503 x[56] + 1.414996774584897 x[57]
   + 2.482227675000412 x[58] + 1.532222913465052 x[59]
   + 4.261733790164855 x[60] + 3.669640319635411 x[61]
   + 2.661308309708391 x[62] + 3.154220659239589 x[63]
   + 1.663149552235815 x[64] + 1.064805993194936 x[65]
   + 4.457912282762083 x[66] + 4.085664281177293 x[67]
   + 2.296509905749903 x[68] + 1.84416720501217 x[69]
   + 1.202818781661386 x[70] + 0.1920250366180452 x[71]
   + 1.443708683750521 x[72] + 2.9459045289619 x[73]
   + 3.598225035659987 x[74] + 3.849119056922266 x[75]
   + 1.413894819019475 x[76] + 1.948188083715211 x[77]
   + 2.528309990411947 x[78] + 2.774078424426034 x[79]
   + 2.097917780330991 x[80] + 0.9403691774960209 x[81]
   + 2.440001556897132 x[82] + 2.677711660238032 x[83]
   + 1.827192544298118 x[84] + 2.01688817654485 x[85]
   + 0.56984004983251 x[86] + 1.703888517469016 x[87]
   + 3.641664070102358 x[88] + 2.641011853510494 x[89]
   + 4.499903479578204 x[90] + 0.1833495689063354 x[91]
   + 2.610439924482162 x[92] + 1.836208396669788 x[93]
   + 2.435586292212425 x[94] + 3.371800373269568 x[95]
   + 2.358558052856328 x[96] + 2.37659387782627 x[97]
   + 0.1594818428138646 x[98] + 2.774306306544598 x[99] + 27 u[0] + 71 u[1]
   + 41 u[2] + 30 u[3] + 55 u[4] + 97 u[5] + 72 u[6] + 35 u[7] + 80 u[8]
   + 41 u[9] + 27 u[10] + 98 u[11] + 59 u[12] + 7 u[13] + 32 u[14]
   + 16 u[15] + 100 u[16] + 67 u[17] + 92 u[18] + 29 u[19] + 48 u[20]
   + 23 u[21] + 99 u[22] + 82 u[23] + 84 u[24] + 75 u[25] + 69 u[26]
   + 19 u[27] + 89 u[28] + 22 u[29] + 97 u[30] + 11 u[31] + 15 u[32]
   + 24 u[33] + 7 u[34] + 56 u[35] + 75 u[36] + 76 u[37] + 47 u[38]
   + 94 u[39] + 58 u[40] + 25 u[41] + 5 u[42] + 89 u[43] + 82 u[44]
   + 50 u[45] + 57 u[46] + 9 u[47] + 50 u[48] + 71 u[49] + 30 u[50]
   + 71 u[51] + 84 u[52] + 3 u[53] + 88 u[54] + 31 u[55] + 24 u[56]
   + 10 u[57] + 83 u[58] + 85 u[59] + 44 u[60] + 46 u[61] + 51 u[62]
   + 2 u[63] + 27 u[64] + 31 u[65] + 56 u[66] + 58 u[67] + 35 u[68]
   + 97 u[69] + 57 u[70] + 97 u[71] + 89 u[72] + 14 u[73] + 27 u[74]
   + 48 u[75] + 54 u[76] + 18 u[77] + 44 u[78] + 54 u[79] + 9 u[80]
   + 21 u[81] + 30 u[82] + 5 u[83] + 73 u[84] + 37 u[85] + 47 u[86]
   + 59 u[87] + 17 u[88] + 26 u[89] + 64 u[90] + 32 u[91] + 40 u[92]
   + 87 u[93] + 67 u[94] + 24 u[95] + 24 u[96] + 40 u[97] + 75 u[98]
   + 3 u[99] <= 14544
 mccormick1[0]: - u[0] + r[0] <= 0
 mccormick1[1]: - u[1] + r[1] <= 0
 mccormick1[2]: - u[2] + r[2] <= 0
 mccormick1[3]: - u[3] + r[3] <= 0
 mccormick1[4]: - u[4] + r[4] <= 0
 mccormick1[5]: - u[5] + r[5] <= 0
 mccormick1[6]: - u[6] + r[6] <= 0
 mccormick1[7]: - u[7] + r[7] <= 0
 mccormick1[8]: - u[8] + r[8] <= 0
 mccormick1[9]: - u[9] + r[9] <= 0
 mccormick1[10]: - u[10] + r[10] <= 0
 mccormick1[11]: - u[11] + r[11] <= 0
 mccormick1[12]: - u[12] + r[12] <= 0
 mccormick1[13]: - u[13] + r[13] <= 0
 mccormick1[14]: - u[14] + r[14] <= 0
 mccormick1[15]: - u[15] + r[15] <= 0
 mccormick1[16]: - u[16] + r[16] <= 0
 mccormick1[17]: - u[17] + r[17] <= 0
 mccormick1[18]: - u[18] + r[18] <= 0
 mccormick1[19]: - u[19] + r[19] <= 0
 mccormick1[20]: - u[20] + r[20] <= 0
 mccormick1[21]: - u[21] + r[21] <= 0
 mccormick1[22]: - u[22] + r[22] <= 0
 mccormick1[23]: - u[23] + r[23] <= 0
 mccormick1[24]: - u[24] + r[24] <= 0
 mccormick1[25]: - u[25] + r[25] <= 0
 mccormick1[26]: - u[26] + r[26] <= 0
 mccormick1[27]: - u[27] + r[27] <= 0
 mccormick1[28]: - u[28] + r[28] <= 0
 mccormick1[29]: - u[29] + r[29] <= 0
 mccormick1[30]: - u[30] + r[30] <= 0
 mccormick1[31]: - u[31] + r[31] <= 0
 mccormick1[32]: - u[32] + r[32] <= 0
 mccormick1[33]: - u[33] + r[33] <= 0
 mccormick1[34]: - u[34] + r[34] <= 0
 mccormick1[35]: - u[35] + r[35] <= 0
 mccormick1[36]: - u[36] + r[36] <= 0
 mccormick1[37]: - u[37] + r[37] <= 0
 mccormick1[38]: - u[38] + r[38] <= 0
 mccormick1[39]: - u[39] + r[39] <= 0
 mccormick1[40]: - u[40] + r[40] <= 0
 mccormick1[41]: - u[41] + r[41] <= 0
 mccormick1[42]: - u[42] + r[42] <= 0
 mccormick1[43]: - u[43] + r[43] <= 0
 mccormick1[44]: - u[44] + r[44] <= 0
 mccormick1[45]: - u[45] + r[45] <= 0
 mccormick1[46]: - u[46] + r[46] <= 0
 mccormick1[47]: - u[47] + r[47] <= 0
 mccormick1[48]: - u[48] + r[48] <= 0
 mccormick1[49]: - u[49] + r[49] <= 0
 mccormick1[50]: - u[50] + r[50] <= 0
 mccormick1[51]: - u[51] + r[51] <= 0
 mccormick1[52]: - u[52] + r[52] <= 0
 mccormick1[53]: - u[53] + r[53] <= 0
 mccormick1[54]: - u[54] + r[54] <= 0
 mccormick1[55]: - u[55] + r[55] <= 0
 mccormick1[56]: - u[56] + r[56] <= 0
 mccormick1[57]: - u[57] + r[57] <= 0
 mccormick1[58]: - u[58] + r[58] <= 0
 mccormick1[59]: - u[59] + r[59] <= 0
 mccormick1[60]: - u[60] + r[60] <= 0
 mccormick1[61]: - u[61] + r[61] <= 0
 mccormick1[62]: - u[62] + r[62] <= 0
 mccormick1[63]: - u[63] + r[63] <= 0
 mccormick1[64]: - u[64] + r[64] <= 0
 mccormick1[65]: - u[65] + r[65] <= 0
 mccormick1[66]: - u[66] + r[66] <= 0
 mccormick1[67]: - u[67] + r[67] <= 0
 mccormick1[68]: - u[68] + r[68] <= 0
 mccormick1[69]: - u[69] + r[69] <= 0
 mccormick1[70]: - u[70] + r[70] <= 0
 mccormick1[71]: - u[71] + r[71] <= 0
 mccormick1[72]: - u[72] + r[72] <= 0
 mccormick1[73]: - u[73] + r[73] <= 0
 mccormick1[74]: - u[74] + r[74] <= 0
 mccormick1[75]: - u[75] + r[75] <= 0
 mccormick1[76]: - u[76] + r[76] <= 0
 mccormick1[77]: - u[77] + r[77] <= 0
 mccormick1[78]: - u[78] + r[78] <= 0
 mccormick1[79]: - u[79] + r[79] <= 0
 mccormick1[80]: - u[80] + r[80] <= 0
 mccormick1[81]: - u[81] + r[81] <= 0
 mccormick1[82]: - u[82] + r[82] <= 0
 mccormick1[83]: - u[83] + r[83] <= 0
 mccormick1[84]: - u[84] + r[84] <= 0
 mccormick1[85]: - u[85] + r[85] <= 0
 mccormick1[86]: - u[86] + r[86] <= 0
 mccormick1[87]: - u[87] + r[87] <= 0
 mccormick1[88]: - u[88] + r[88] <= 0
 mccormick1[89]: - u[89] + r[89] <= 0
 mccormick1[90]: - u[90] + r[90] <= 0
 mccormick1[91]: - u[91] + r[91] <= 0
 mccormick1[92]: - u[92] + r[92] <= 0
 mccormick1[93]: - u[93] + r[93] <= 0
 mccormick1[94]: - u[94] + r[94] <= 0
 mccormick1[95]: - u[95] + r[95] <= 0
 mccormick1[96]: - u[96] + r[96] <= 0
 mccormick1[97]: - u[97] + r[97] <= 0
 mccormick1[98]: - u[98] + r[98] <= 0
 mccormick1[99]: - u[99] + r[99] <= 0
 mccormick2[0]: - x[0] + r[0] <= 0
 mccormick2[1]: - x[1] + r[1] <= 0
 mccormick2[2]: - x[2] + r[2] <= 0
 mccormick2[3]: - x[3] + r[3] <= 0
 mccormick2[4]: - x[4] + r[4] <= 0
 mccormick2[5]: - x[5] + r[5] <= 0
 mccormick2[6]: - x[6] + r[6] <= 0
 mccormick2[7]: - x[7] + r[7] <= 0
 mccormick2[8]: - x[8] + r[8] <= 0
 mccormick2[9]: - x[9] + r[9] <= 0
 mccormick2[10]: - x[10] + r[10] <= 0
 mccormick2[11]: - x[11] + r[11] <= 0
 mccormick2[12]: - x[12] + r[12] <= 0
 mccormick2[13]: - x[13] + r[13] <= 0
 mccormick2[14]: - x[14] + r[14] <= 0
 mccormick2[15]: - x[15] + r[15] <= 0
 mccormick2[16]: - x[16] + r[16] <= 0
 mccormick2[17]: - x[17] + r[17] <= 0
 mccormick2[18]: - x[18] + r[18] <= 0
 mccormick2[19]: - x[19] + r[19] <= 0
 mccormick2[20]: - x[20] + r[20] <= 0
 mccormick2[21]: - x[21] + r[21] <= 0
 mccormick2[22]: - x[22] + r[22] <= 0
 mccormick2[23]: - x[23] + r[23] <= 0
 mccormick2[24]: - x[24] + r[24] <= 0
 mccormick2[25]: - x[25] + r[25] <= 0
 mccormick2[26]: - x[26] + r[26] <= 0
 mccormick2[27]: - x[27] + r[27] <= 0
 mccormick2[28]: - x[28] + r[28] <= 0
 mccormick2[29]: - x[29] + r[29] <= 0
 mccormick2[30]: - x[30] + r[30] <= 0
 mccormick2[31]: - x[31] + r[31] <= 0
 mccormick2[32]: - x[32] + r[32] <= 0
 mccormick2[33]: - x[33] + r[33] <= 0
 mccormick2[34]: - x[34] + r[34] <= 0
 mccormick2[35]: - x[35] + r[35] <= 0
 mccormick2[36]: - x[36] + r[36] <= 0
 mccormick2[37]: - x[37] + r[37] <= 0
 mccormick2[38]: - x[38] + r[38] <= 0
 mccormick2[39]: - x[39] + r[39] <= 0
 mccormick2[40]: - x[40] + r[40] <= 0
 mccormick2[41]: - x[41] + r[41] <= 0
 mccormick2[42]: - x[42] + r[42] <= 0
 mccormick2[43]: - x[43] + r[43] <= 0
 mccormick2[44]: - x[44] + r[44] <= 0
 mccormick2[45]: - x[45] + r[45] <= 0
 mccormick2[46]: - x[46] + r[46] <= 0
 mccormick2[47]: - x[47] + r[47] <= 0
 mccormick2[48]: - x[48] + r[48] <= 0
 mccormick2[49]: - x[49] + r[49] <= 0
 mccormick2[50]: - x[50] + r[50] <= 0
 mccormick2[51]: - x[51] + r[51] <= 0
 mccormick2[52]: - x[52] + r[52] <= 0
 mccormick2[53]: - x[53] + r[53] <= 0
 mccormick2[54]: - x[54] + r[54] <= 0
 mccormick2[55]: - x[55] + r[55] <= 0
 mccormick2[56]: - x[56] + r[56] <= 0
 mccormick2[57]: - x[57] + r[57] <= 0
 mccormick2[58]: - x[58] + r[58] <= 0
 mccormick2[59]: - x[59] + r[59] <= 0
 mccormick2[60]: - x[60] + r[60] <= 0
 mccormick2[61]: - x[61] + r[61] <= 0
 mccormick2[62]: - x[62] + r[62] <= 0
 mccormick2[63]: - x[63] + r[63] <= 0
 mccormick2[64]: - x[64] + r[64] <= 0
 mccormick2[65]: - x[65] + r[65] <= 0
 mccormick2[66]: - x[66] + r[66] <= 0
 mccormick2[67]: - x[67] + r[67] <= 0
 mccormick2[68]: - x[68] + r[68] <= 0
 mccormick2[69]: - x[69] + r[69] <= 0
 mccormick2[70]: - x[70] + r[70] <= 0
 mccormick2[71]: - x[71] + r[71] <= 0
 mccormick2[72]: - x[72] + r[72] <= 0
 mccormick2[73]: - x[73] + r[73] <= 0
 mccormick2[74]: - x[74] + r[74] <= 0
 mccormick2[75]: - x[75] + r[75] <= 0
 mccormick2[76]: - x[76] + r[76] <= 0
 mccormick2[77]: - x[77] + r[77] <= 0
 mccormick2[78]: - x[78] + r[78] <= 0
 mccormick2[79]: - x[79] + r[79] <= 0
 mccormick2[80]: - x[80] + r[80] <= 0
 mccormick2[81]: - x[81] + r[81] <= 0
 mccormick2[82]: - x[82] + r[82] <= 0
 mccormick2[83]: - x[83] + r[83] <= 0
 mccormick2[84]: - x[84] + r[84] <= 0
 mccormick2[85]: - x[85] + r[85] <= 0
 mccormick2[86]: - x[86] + r[86] <= 0
 mccormick2[87]: - x[87] + r[87] <= 0
 mccormick2[88]: - x[88] + r[88] <= 0
 mccormick2[89]: - x[89] + r[89] <= 0
 mccormick2[90]: - x[90] + r[90] <= 0
 mccormick2[91]: - x[91] + r[91] <= 0
 mccormick2[92]: - x[92] + r[92] <= 0
 mccormick2[93]: - x[93] + r[93] <= 0
 mccormick2[94]: - x[94] + r[94] <= 0
 mccormick2[95]: - x[95] + r[95] <= 0
 mccormick2[96]: - x[96] + r[96] <= 0
 mccormick2[97]: - x[97] + r[97] <= 0
 mccormick2[98]: - x[98] + r[98] <= 0
 mccormick2[99]: - x[99] + r[99] <= 0
 mccormick3[0]: x[0] + u[0] - r[0] <= 1
 mccormick3[1]: x[1] + u[1] - r[1] <= 1
 mccormick3[2]: x[2] + u[2] - r[2] <= 1
 mccormick3[3]: x[3] + u[3] - r[3] <= 1
 mccormick3[4]: x[4] + u[4] - r[4] <= 1
 mccormick3[5]: x[5] + u[5] - r[5] <= 1
 mccormick3[6]: x[6] + u[6] - r[6] <= 1
 mccormick3[7]: x[7] + u[7] - r[7] <= 1
 mccormick3[8]: x[8] + u[8] - r[8] <= 1
 mccormick3[9]: x[9] + u[9] - r[9] <= 1
 mccormick3[10]: x[10] + u[10] - r[10] <= 1
 mccormick3[11]: x[11] + u[11] - r[11] <= 1
 mccormick3[12]: x[12] + u[12] - r[12] <= 1
 mccormick3[13]: x[13] + u[13] - r[13] <= 1
 mccormick3[14]: x[14] + u[14] - r[14] <= 1
 mccormick3[15]: x[15] + u[15] - r[15] <= 1
 mccormick3[16]: x[16] + u[16] - r[16] <= 1
 mccormick3[17]: x[17] + u[17] - r[17] <= 1
 mccormick3[18]: x[18] + u[18] - r[18] <= 1
 mccormick3[19]: x[19] + u[19] - r[19] <= 1
 mccormick3[20]: x[20] + u[20] - r[20] <= 1
 mccormick3[21]: x[21] + u[21] - r[21] <= 1
 mccormick3[22]: x[22] + u[22] - r[22] <= 1
 mccormick3[23]: x[23] + u[23] - r[23] <= 1
 mccormick3[24]: x[24] + u[24] - r[24] <= 1
 mccormick3[25]: x[25] + u[25] - r[25] <= 1
 mccormick3[26]: x[26] + u[26] - r[26] <= 1
 mccormick3[27]: x[27] + u[27] - r[27] <= 1
 mccormick3[28]: x[28] + u[28] - r[28] <= 1
 mccormick3[29]: x[29] + u[29] - r[29] <= 1
 mccormick3[30]: x[30] + u[30] - r[30] <= 1
 mccormick3[31]: x[31] + u[31] - r[31] <= 1
 mccormick3[32]: x[32] + u[32] - r[32] <= 1
 mccormick3[33]: x[33] + u[33] - r[33] <= 1
 mccormick3[34]: x[34] + u[34] - r[34] <= 1
 mccormick3[35]: x[35] + u[35] - r[35] <= 1
 mccormick3[36]: x[36] + u[36] - r[36] <= 1
 mccormick3[37]: x[37] + u[37] - r[37] <= 1
 mccormick3[38]: x[38] + u[38] - r[38] <= 1
 mccormick3[39]: x[39] + u[39] - r[39] <= 1
 mccormick3[40]: x[40] + u[40] - r[40] <= 1
 mccormick3[41]: x[41] + u[41] - r[41] <= 1
 mccormick3[42]: x[42] + u[42] - r[42] <= 1
 mccormick3[43]: x[43] + u[43] - r[43] <= 1
 mccormick3[44]: x[44] + u[44] - r[44] <= 1
 mccormick3[45]: x[45] + u[45] - r[45] <= 1
 mccormick3[46]: x[46] + u[46] - r[46] <= 1
 mccormick3[47]: x[47] + u[47] - r[47] <= 1
 mccormick3[48]: x[48] + u[48] - r[48] <= 1
 mccormick3[49]: x[49] + u[49] - r[49] <= 1
 mccormick3[50]: x[50] + u[50] - r[50] <= 1
 mccormick3[51]: x[51] + u[51] - r[51] <= 1
 mccormick3[52]: x[52] + u[52] - r[52] <= 1
 mccormick3[53]: x[53] + u[53] - r[53] <= 1
 mccormick3[54]: x[54] + u[54] - r[54] <= 1
 mccormick3[55]: x[55] + u[55] - r[55] <= 1
 mccormick3[56]: x[56] + u[56] - r[56] <= 1
 mccormick3[57]: x[57] + u[57] - r[57] <= 1
 mccormick3[58]: x[58] + u[58] - r[58] <= 1
 mccormick3[59]: x[59] + u[59] - r[59] <= 1
 mccormick3[60]: x[60] + u[60] - r[60] <= 1
 mccormick3[61]: x[61] + u[61] - r[61] <= 1
 mccormick3[62]: x[62] + u[62] - r[62] <= 1
 mccormick3[63]: x[63] + u[63] - r[63] <= 1
 mccormick3[64]: x[64] + u[64] - r[64] <= 1
 mccormick3[65]: x[65] + u[65] - r[65] <= 1
 mccormick3[66]: x[66] + u[66] - r[66] <= 1
 mccormick3[67]: x[67] + u[67] - r[67] <= 1
 mccormick3[68]: x[68] + u[68] - r[68] <= 1
 mccormick3[69]: x[69] + u[69] - r[69] <= 1
 mccormick3[70]: x[70] + u[70] - r[70] <= 1
 mccormick3[71]: x[71] + u[71] - r[71] <= 1
 mccormick3[72]: x[72] + u[72] - r[72] <= 1
 mccormick3[73]: x[73] + u[73] - r[73] <= 1
 mccormick3[74]: x[74] + u[74] - r[74] <= 1
 mccormick3[75]: x[75] + u[75] - r[75] <= 1
 mccormick3[76]: x[76] + u[76] - r[76] <= 1
 mccormick3[77]: x[77] + u[77] - r[77] <= 1
 mccormick3[78]: x[78] + u[78] - r[78] <= 1
 mccormick3[79]: x[79] + u[79] - r[79] <= 1
 mccormick3[80]: x[80] + u[80] - r[80] <= 1
 mccormick3[81]: x[81] + u[81] - r[81] <= 1
 mccormick3[82]: x[82] + u[82] - r[82] <= 1
 mccormick3[83]: x[83] + u[83] - r[83] <= 1
 mccormick3[84]: x[84] + u[84] - r[84] <= 1
 mccormick3[85]: x[85] + u[85] - r[85] <= 1
 mccormick3[86]: x[86] + u[86] - r[86] <= 1
 mccormick3[87]: x[87] + u[87] - r[87] <= 1
 mccormick3[88]: x[88] + u[88] - r[88] <= 1
 mccormick3[89]: x[89] + u[89] - r[89] <= 1
 mccormick3[90]: x[90] + u[90] - r[90] <= 1
 mccormick3[91]: x[91] + u[91] - r[91] <= 1
 mccormick3[92]: x[92] + u[92] - r[92] <= 1
 mccormick3[93]: x[93] + u[93] - r[93] <= 1
 mccormick3[94]: x[94] + u[94] - r[94] <= 1
 mccormick3[95]: x[95] + u[95] - r[95] <= 1
 mccormick3[96]: x[96] + u[96] - r[96] <= 1
 mccormick3[97]: x[97] + u[97] - r[97] <= 1
 mccormick3[98]: x[98] + u[98] - r[98] <= 1
 mccormick3[99]: x[99] + u[99] - r[99] <= 1
Bounds
Binaries
 x[0] x[1] x[2] x[3] x[4] x[5] x[6] x[7] x[8] x[9] x[10] x[11] x[12] x[13]
 x[14] x[15] x[16] x[17] x[18] x[19] x[20] x[21] x[22] x[23] x[24] x[25]
 x[26] x[27] x[28] x[29] x[30] x[31] x[32] x[33] x[34] x[35] x[36] x[37]
 x[38] x[39] x[40] x[41] x[42] x[43] x[44] x[45] x[46] x[47] x[48] x[49]
 x[50] x[51] x[52] x[53] x[54] x[55] x[56] x[57] x[58] x[59] x[60] x[61]
 x[62] x[63] x[64] x[65] x[66] x[67] x[68] x[69] x[70] x[71] x[72] x[73]
 x[74] x[75] x[76] x[77] x[78] x[79] x[80] x[81] x[82] x[83] x[84] x[85]
 x[86] x[87] x[88] x[89] x[90] x[91] x[92] x[93] x[94] x[95] x[96] x[97]
 x[98] x[99] u[0] u[1] u[2] u[3] u[4] u[5] u[6] u[7] u[8] u[9] u[10] u[11]
 u[12] u[13] u[14] u[15] u[16] u[17] u[18] u[19] u[20] u[21] u[22] u[23]
 u[24] u[25] u[26] u[27] u[28] u[29] u[30] u[31] u[32] u[33] u[34] u[35]
 u[36] u[37] u[38] u[39] u[40] u[41] u[42] u[43] u[44] u[45] u[46] u[47]
 u[48] u[49] u[50] u[51] u[52] u[53] u[54] u[55] u[56] u[57] u[58] u[59]
 u[60] u[61] u[62] u[63] u[64] u[65] u[66] u[67] u[68] u[69] u[70] u[71]
 u[72] u[73] u[74] u[75] u[76] u[77] u[78] u[79] u[80] u[81] u[82] u[83]
 u[84] u[85] u[86] u[87] u[88] u[89] u[90] u[91] u[92] u[93] u[94] u[95]
 u[96] u[97] u[98] u[99] r[0] r[1] r[2] r[3] r[4] r[5] r[6] r[7] r[8] r[9]
 r[10] r[11] r[12] r[13] r[14] r[15] r[16] r[17] r[18] r[19] r[20] r[21]
 r[22] r[23] r[24] r[25] r[26] r[27] r[28] r[29] r[30] r[31] r[32] r[33]
 r[34] r[35] r[36] r[37] r[38] r[39] r[40] r[41] r[42] r[43] r[44] r[45]
 r[46] r[47] r[48] r[49] r[50] r[51] r[52] r[53] r[54] r[55] r[56] r[57]
 r[58] r[59] r[60] r[61] r[62] r[63] r[64] r[65] r[66] r[67] r[68] r[69]
 r[70] r[71] r[72] r[73] r[74] r[75] r[76] r[77] r[78] r[79] r[80] r[81]
 r[82] r[83] r[84] r[85] r[86] r[87] r[88] r[89] r[90] r[91] r[92] r[93]
 r[94] r[95] r[96] r[97] r[98] r[99]
End
