instances/knapsack/discrete/knapsack_100_15.kp
54633
100
471

73 7.3 22
50 5.0 70
20 2.0 52
97 9.7 12
78 7.8 93
75 7.5 33
19 1.9 57
45 4.5 35
19 1.9 98
24 2.4 66
61 6.1 83
33 3.3 75
34 3.4 47
62 6.2 30
18 1.8 7
82 8.2 100
19 1.9 98
46 4.6 50
47 4.7 50
64 6.4 49
43 4.3 85
45 4.5 83
30 3.0 76
56 5.6 40
86 8.6 85
42 4.2 34
36 3.6 4
29 2.9 31
15 1.5 74
25 2.5 100
3 0.3 69
65 6.5 52
9 0.9 92
95 9.5 31
54 5.4 91
83 8.3 89
14 1.4 53
98 9.8 23
78 7.8 54
20 2.0 51
49 4.9 24
79 7.9 97
64 6.4 61
31 3.1 71
69 6.9 98
20 2.0 39
19 1.9 80
27 2.7 28
1 0.1 56
58 5.8 81
56 5.6 39
66 6.6 30
67 6.7 47
98 9.8 49
26 2.6 40
17 1.7 46
31 3.1 94
4 0.4 52
54 5.4 72
40 4.0 19
86 8.6 28
40 4.0 38
69 6.9 9
56 5.6 41
37 3.7 78
58 5.8 21
18 1.8 53
16 1.6 93
90 9.0 44
11 1.1 93
51 5.1 77
43 4.3 23
92 9.2 85
81 8.1 97
85 8.5 14
74 7.4 66
16 1.6 18
37 3.7 49
90 9.0 40
88 8.8 19
87 8.7 95
31 3.1 6
92 9.2 73
27 2.7 34
11 1.1 53
71 7.1 12
65 6.5 90
22 2.2 87
4 0.4 32
73 7.3 42
70 7.0 46
98 9.8 13
2 0.2 69
93 9.3 40
34 3.4 4
91 9.1 82
51 5.1 17
70 7.0 24
18 1.8 100
30 3.0 60

14544
468

[3.8402922908758033 1.7178155930386603 0.8195124575827024 2.3219906626342133 1.339467168088491 3.188585183698355 1.1903474834157983 0.3350057729248648 0.9842371173210889 3.058759836323558 3.246724143079068 4.656030967206104 2.4702111544679557 1.3225359671674302 1.8938017199347352 3.7494788033332402 0.8216952225736943 3.152362618343117 2.2017102787537453 0.8664083649105254 1.4040976981263347 1.280650427449013 0.7247745661870667 3.80043182548014 0.5444451765217032 0.8157721263033166 2.2521004828144804 3.09443310076801 1.2356632178967952 1.7429620354448656 1.4218250032091095 2.1088698885768964 0.523911740410418 0.19962384868413557 3.390531806952766 4.6080016188020245 3.2357216144858656 2.192007718211463 0.6140382555938814 1.5176005904858152 3.132050119973144 1.058342076832948 2.6068173022340915 3.4758078931729495 0.14217627169232563 0.9339861346518261 1.18401538235457 1.0262827618690176 1.5623448547483776 3.414500578066129 0.45669399538225813 3.070948189109555 0.6863472172032999 0.49578035269327264 2.348908530650521 0.3181835818128169 0.8333194966253503 1.4149967745848973 2.4822276750004115 1.532222913465052 4.261733790164855 3.669640319635411 2.661308309708391 3.154220659239589 1.6631495522358146 1.0648059931949359 4.457912282762083 4.085664281177293 2.2965099057499025 1.8441672050121702 1.2028187816613864 0.19202503661804524 1.4437086837505206 2.9459045289619 3.5982250356599867 3.8491190569222655 1.4138948190194751 1.948188083715211 2.5283099904119473 2.7740784244260337 2.0979177803309907 0.9403691774960209 2.4400015568971316 2.677711660238032 1.8271925442981178 2.01688817654485 0.56984004983251 1.703888517469016 3.6416640701023577 2.641011853510494 4.499903479578204 0.1833495689063354 2.610439924482162 1.8362083966697882 2.4355862922124247 3.371800373269568 2.3585580528563277 2.3765938778262696 0.1594818428138646 2.7743063065445983]

[27 71 41 30 55 97 72 35 80 41 27 98 59 7 32 16 100 67 92 29 48 23 99 82 84 75 69 19 89 22 97 11 15 24 7 56 75 76 47 94 58 25 5 89 82 50 57 9 50 71 30 71 84 3 88 31 24 10 83 85 44 46 51 2 27 31 56 58 35 97 57 97 89 14 27 48 54 18 44 54 9 21 30 5 73 37 47 59 17 26 64 32 40 87 67 24 24 40 75 3]
